Problem:    
Rows:       260
Columns:    89 (72 integer, 72 binary)
Non-zeros:  812
Status:     INTEGER OPTIMAL
Objective:  value = 53.80414 (MINimum)

   No.   Row name        Activity     Lower bound   Upper bound
------ ------------    ------------- ------------- -------------
     1 r.5                   53.8041             0               
     2 r.6                   20.8776       -983.99               
     3 r.7                    1053.8             0               
     4 r.8                  -979.122      -979.773               
     5 r.9                    1053.8             0               
     6 r.10                 -969.955      -984.016               
     7 r.11                  53.8041             0               
     8 r.12                 -977.806      -978.457               
     9 r.13                   1053.8             0               
    10 r.14                 -985.938      -999.184               
    11 r.15                  53.8041             0               
    12 r.16                 -996.576      -997.227               
    13 r.17                   1053.8             0               
    14 r.18                 -989.907      -998.311               
    15 r.19                  53.8041             0               
    16 r.20                 -994.292      -994.943               
    17 r.21                   1053.8             0               
    18 r.22                 -991.596      -992.247               
    19 r.23                  53.8041             0               
    20 r.24                  20.8776       -990.45               
    21 r.25                   1053.8             0               
    22 r.26                 -999.349      -999.349               
    23 r.27                  53.8041             0               
    24 r.28                  0.65075      -998.721               
    25 r.29                   1053.8             0               
    26 r.30                 -946.196      -976.241               
    27 r.31                  53.8041             0               
    28 r.32                  53.8041      -963.489               
    29 r.33                  53.8041             0               
    30 r.34                  53.8041      -976.621               
    31 r.35                   1053.8             0               
    32 r.36                 -946.196      -967.073               
    33 r.37                        1             1             = 
    34 r.38                        1             1             = 
    35 r.39                        1             1             = 
    36 r.40                        1             1             = 
    37 r.41                        1             1             = 
    38 r.42                        1             1             = 
    39 r.43                        1             1             = 
    40 r.44                        1             1             = 
    41 r.45                     1001             2               
    42 r.46                    -1001         -1001               
    43 r.47                  2009.17      -984.016               
    44 r.48                     1001             2               
    45 r.49                    -1001         -1001               
    46 r.50                  1001.32      -978.457               
    47 r.51                     1001             2               
    48 r.52                    -1001         -1001               
    49 r.53                  1993.18      -999.184               
    50 r.54                     1001             2               
    51 r.55                    -1001         -1001               
    52 r.56                  982.546      -997.227               
    53 r.57                     1001             2               
    54 r.58                    -1001         -1001               
    55 r.59                  1989.22      -998.311               
    56 r.60                     1001             2               
    57 r.61                    -1001         -1001               
    58 r.62                   984.83      -994.943               
    59 r.63                     1001             2               
    60 r.64                    -1001         -1001               
    61 r.65                  1987.53      -992.247               
    62 r.66                     1001             2               
    63 r.67                    -1001         -1001               
    64 r.68                     2000       -990.45               
    65 r.69                  20.2269       -983.99               
    66 r.70                 -979.773      -979.773               
    67 r.71                  20.2269       -983.99               
    68 r.72                 -979.773      -979.773               
    69 r.73                 -967.073      -976.241               
    70 r.74                  32.9265      -963.489               
    71 r.75                 -967.073      -976.241               
    72 r.76                  32.9265      -963.489               
    73 r.77                  32.9265      -976.621               
    74 r.78                 -967.073      -967.073               
    75 r.79                  32.9265      -976.621               
    76 r.80                 -967.073      -967.073               
    77 r.81                     1001             2               
    78 r.82                    -1001         -1001               
    79 r.83                  1990.83       16.0105               
    80 r.84                     1001             2               
    81 r.85                    -1001         -1001               
    82 r.86                  2998.68       20.2269               
    83 r.87                        2             2               
    84 r.88                       -2         -1001               
    85 r.89                 -15.9838      -999.184               
    86 r.90                     1000             2               
    87 r.91                    -1000         -1001               
    88 r.92                  1981.23      -997.227               
    89 r.93                        2             2               
    90 r.94                       -2         -1001               
    91 r.95                 -19.9524      -998.311               
    92 r.96                     1000             2               
    93 r.97                    -1000         -1001               
    94 r.98                  1983.51      -994.943               
    95 r.99                        2             2               
    96 r.100                      -2         -1001               
    97 r.101                -21.6412      -992.247               
    98 r.102                    1000             2               
    99 r.103                   -1000         -1001               
   100 r.104                 2998.68       -990.45               
   101 r.105                -970.605      -984.016               
   102 r.106                -978.457      -978.457               
   103 r.107                -970.605      -984.016               
   104 r.108                -978.457      -978.457               
   105 r.109                -976.241      -976.241               
   106 r.110                 23.7588      -963.489               
   107 r.111                 31.6103      -976.241               
   108 r.112                 1031.61      -963.489               
   109 r.113                    1001             2               
   110 r.114                   -1001         -1001               
   111 r.115                 2023.76      -976.621               
   112 r.116                    1001             2               
   113 r.117                   -1001         -1001               
   114 r.118                 3031.61      -967.073               
   115 r.119                    1001             2               
   116 r.120                   -1001         -1001               
   117 r.121                 2006.82       16.0105               
   118 r.122                    1001             2               
   119 r.123                   -1001         -1001               
   120 r.124                 3017.45       20.2269               
   121 r.125                       2             2               
   122 r.126                      -2         -1001               
   123 r.127                 15.9838       15.9838               
   124 r.128                    1000             2               
   125 r.129                   -1000         -1001               
   126 r.130                 2018.77       21.5431               
   127 r.131                       2             2               
   128 r.132                      -2         -1001               
   129 r.133                -3.96858      -998.311               
   130 r.134                    1000             2               
   131 r.135                   -1000         -1001               
   132 r.136                 2002.28      -994.943               
   133 r.137                       2             2               
   134 r.138                      -2         -1001               
   135 r.139                -5.65739      -992.247               
   136 r.140                    1000             2               
   137 r.141                   -1000         -1001               
   138 r.142                 3017.45       -990.45               
   139 r.143                -986.589      -999.184               
   140 r.144                -997.227      -997.227               
   141 r.145                -986.589      -999.184               
   142 r.146                -997.227      -997.227               
   143 r.147                -960.257      -976.241               
   144 r.148                 39.7426      -963.489               
   145 r.149                 50.3805      -976.241               
   146 r.150                 1050.38      -963.489               
   147 r.151                 39.7426      -976.621               
   148 r.152                -960.257      -967.073               
   149 r.153                 1050.38      -976.621               
   150 r.154                 50.3805      -967.073               
   151 r.155                    1001             2               
   152 r.156                   -1001         -1001               
   153 r.157                 2010.78       16.0105               
   154 r.158                    1001             2               
   155 r.159                   -1001         -1001               
   156 r.160                 3015.17       20.2269               
   157 r.161                       2             2               
   158 r.162                      -2         -1001               
   159 r.163                 19.9524       15.9838               
   160 r.164                    1000             2               
   161 r.165                   -1000         -1001               
   162 r.166                 2016.49       21.5431               
   163 r.167                       2             2               
   164 r.168                      -2         -1001               
   165 r.169                 3.96858      0.816367               
   166 r.170                    1000             2               
   167 r.171                   -1000         -1001               
   168 r.172                 1997.72       2.77293               
   169 r.173                       2             2               
   170 r.174                      -2         -1001               
   171 r.175                -1.68881      -992.247               
   172 r.176                    1000             2               
   173 r.177                   -1000         -1001               
   174 r.178                 3015.17       -990.45               
   175 r.179                -990.558      -998.311               
   176 r.180                -994.943      -994.943               
   177 r.181                -990.558      -998.311               
   178 r.182                -994.943      -994.943               
   179 r.183                -956.289      -976.241               
   180 r.184                 43.7112      -963.489               
   181 r.185                 48.0963      -976.241               
   182 r.186                  1048.1      -963.489               
   183 r.187                    1001             2               
   184 r.188                   -1001         -1001               
   185 r.189                 2043.71      -976.621               
   186 r.190                    1001             2               
   187 r.191                   -1001         -1001               
   188 r.192                  3048.1      -967.073               
   189 r.193                    1001             2               
   190 r.194                   -1001         -1001               
   191 r.195                 2012.47       16.0105               
   192 r.196                    1001             2               
   193 r.197                   -1001         -1001               
   194 r.198                    2000       20.2269               
   195 r.199                       2             2               
   196 r.200                      -2         -1001               
   197 r.201                 21.6412       15.9838               
   198 r.202                    1000             2               
   199 r.203                   -1000         -1001               
   200 r.204                 1001.32       21.5431               
   201 r.205                       2             2               
   202 r.206                      -2         -1001               
   203 r.207                 5.65739      0.816367               
   204 r.208                    1000             2               
   205 r.209                   -1000         -1001               
   206 r.210                 982.546       2.77293               
   207 r.211                       2             2               
   208 r.212                      -2         -1001               
   209 r.213                 1.68881       1.68881               
   210 r.214                    1000             2               
   211 r.215                   -1000         -1001               
   212 r.216                  984.83       5.05708               
   213 r.217                -992.247      -992.247               
   214 r.218                 20.2269       -990.45               
   215 r.219                -992.247      -992.247               
   216 r.220                 20.2269       -990.45               
   217 r.221                       2             2               
   218 r.222                      -2         -1001               
   219 r.223                  -954.6      -976.241               
   220 r.224                    1000             2               
   221 r.225                   -1000         -1001               
   222 r.226                 2032.93      -963.489               
   223 r.227                    45.4      -976.621               
   224 r.228                  -954.6      -967.073               
   225 r.229                 32.9265      -976.621               
   226 r.230                -967.073      -967.073               
   227 r.231                -946.847      -976.241               
   228 r.232                 53.1534      -963.489               
   229 r.233                -946.847      -976.241               
   230 r.234                 53.1534      -963.489               
   231 r.235                       2             2               
   232 r.236                      -2         -1001               
   233 r.237                   954.6       7.75337               
   234 r.238                    1000             2               
   235 r.239                   -1000         -1001               
   236 r.240                 1967.07        9.5502               
   237 r.241                    1001             2               
   238 r.242                   -1001         -1001               
   239 r.243                    2000      -976.621               
   240 r.244                    1001             2               
   241 r.245                   -1001         -1001               
   242 r.246                    2000      -967.073               
   243 r.247                    1001             2               
   244 r.248                   -1001         -1001               
   245 r.249                 1976.24       15.9838               
   246 r.250                    1001             2               
   247 r.251                   -1001         -1001               
   248 r.252                  968.39       21.5431               
   249 r.253                    1001             2               
   250 r.254                   -1001         -1001               
   251 r.255                 1956.29       1.68881               
   252 r.256                    1001             2               
   253 r.257                   -1001         -1001               
   254 r.258                 951.904       5.05708               
   255 r.259                    1001             2               
   256 r.260                   -1001         -1001               
   257 r.261                    2000       23.7588               
   258 r.262                    1001             2               
   259 r.263                   -1001         -1001               
   260 r.264                    2000       36.5113               

   No. Column name       Activity     Lower bound   Upper bound
------ ------------    ------------- ------------- -------------
     1 tt                    53.8041             0               
     2 s_1_1        *              0             0             1 
     3 t_1_1                 32.9265             0               
     4 s_1_8        *              0             0             1 
     5 s_1_7        *              1             0             1 
     6 s_2_1        *              1             0             1 
     7 t_2_1                 32.9265             0               
     8 s_2_8        *              1             0             1 
     9 s_2_7        *              0             0             1 
    10 s_1_2        *              1             0             1 
    11 t_1_2                 23.7588             0               
    12 s_2_2        *              0             0             1 
    13 t_2_2                 1031.61             0               
    14 s_1_3        *              1             0             1 
    15 t_1_3                 39.7426             0               
    16 s_2_3        *              0             0             1 
    17 t_2_3                 1050.38             0               
    18 s_1_4        *              1             0             1 
    19 t_1_4                 43.7112             0               
    20 s_2_4        *              0             0             1 
    21 t_2_4                  1048.1             0               
    22 s_1_5        *              1             0             1 
    23 t_1_5                    45.4             0               
    24 s_2_5        *              0             0             1 
    25 t_2_5                 32.9265             0               
    26 s_1_6        *              1             0             1 
    27 t_1_6                 53.1534             0               
    28 s_2_6        *              0             0             1 
    29 t_2_6                 53.1534             0               
    30 t_1_7                       0             0               
    31 t_2_7                       0             0               
    32 t_1_8                       0             0               
    33 t_2_8                       0             0               
    34 r_1_1_2      *              1             0             1 
    35 u_1_1_2      *              0             0             1 
    36 r_2_1_2      *              1             0             1 
    37 u_2_1_2      *              0             0             1 
    38 r_1_1_3      *              1             0             1 
    39 u_1_1_3      *              0             0             1 
    40 r_2_1_3      *              1             0             1 
    41 u_2_1_3      *              0             0             1 
    42 r_1_1_4      *              1             0             1 
    43 u_1_1_4      *              0             0             1 
    44 r_2_1_4      *              1             0             1 
    45 u_2_1_4      *              0             0             1 
    46 r_1_1_5      *              1             0             1 
    47 u_1_1_5      *              0             0             1 
    48 r_2_1_5      *              1             0             1 
    49 u_2_1_5      *              0             0             1 
    50 r_1_2_3      *              0             0             1 
    51 u_1_2_3      *              0             0             1 
    52 r_2_2_3      *              1             0             1 
    53 u_2_2_3      *              0             0             1 
    54 r_1_2_4      *              0             0             1 
    55 u_1_2_4      *              0             0             1 
    56 r_2_2_4      *              1             0             1 
    57 u_2_2_4      *              0             0             1 
    58 r_1_2_5      *              0             0             1 
    59 u_1_2_5      *              0             0             1 
    60 r_2_2_5      *              1             0             1 
    61 u_2_2_5      *              0             0             1 
    62 r_1_2_8      *              1             0             1 
    63 u_1_2_8      *              0             0             1 
    64 r_2_2_8      *              1             0             1 
    65 u_2_2_8      *              0             0             1 
    66 r_1_3_4      *              0             0             1 
    67 u_1_3_4      *              0             0             1 
    68 r_2_3_4      *              1             0             1 
    69 u_2_3_4      *              0             0             1 
    70 r_1_3_5      *              0             0             1 
    71 u_1_3_5      *              0             0             1 
    72 r_2_3_5      *              1             0             1 
    73 u_2_3_5      *              0             0             1 
    74 r_1_4_5      *              0             0             1 
    75 u_1_4_5      *              0             0             1 
    76 r_2_4_5      *              1             0             1 
    77 u_2_4_5      *              0             0             1 
    78 r_1_4_8      *              1             0             1 
    79 u_1_4_8      *              0             0             1 
    80 r_2_4_8      *              1             0             1 
    81 u_2_4_8      *              0             0             1 
    82 r_1_5_7      *              0             0             1 
    83 u_1_5_7      *              1             0             1 
    84 r_2_5_7      *              1             0             1 
    85 u_2_5_7      *              0             0             1 
    86 r_1_7_8      *              1             0             1 
    87 u_1_7_8      *              0             0             1 
    88 r_2_7_8      *              1             0             1 
    89 u_2_7_8      *              0             0             1 

Integer feasibility conditions:

KKT.PE: max.abs.err = 0.00e+00 on row 0
        max.rel.err = 0.00e+00 on row 0
        High quality

KKT.PB: max.abs.err = 1.14e-13 on row 22
        max.rel.err = 1.14e-16 on row 213
        High quality

End of output
